Solver command line: ['/opt/ibm/ILOG/CPLEX_Studio201/cplex/bin/x86-64_linux/cplex']


Welcome to IBM(R) ILOG(R) CPLEX(R) Interactive Optimizer 20.1.0.0
  with Simplex, Mixed Integer & Barrier Optimizers
5725-A06 5725-A29 5724-Y48 5724-Y49 5724-Y54 5724-Y55 5655-Y21
Copyright IBM Corp. 1988, 2020.  All Rights Reserved.

Type 'help' for a list of available commands.
Type 'help' followed by a command name for more
information on commands.

CPLEX> Logfile 'cplex.log' closed.
Logfile 'iteration_instace.log' open.
CPLEX> Problem '/tmp/tmpmqc8kbsq.pyomo.lp' read.
Read time = 0.01 sec. (0.42 ticks)
CPLEX> Problem name         : /tmp/tmpmqc8kbsq.pyomo.lp
Objective sense      : Minimize
Variables            :    3329  [Nneg: 12,  Free: 1613,  Binary: 1704]
Objective nonzeros   :       4
Linear constraints   :    3973  [Less: 3730,  Greater: 214,  Equal: 29]
  Nonzeros           :   14312
  RHS nonzeros       :     237

Variables            : Min LB: 0.000000         Max UB: 1.000000       
Objective nonzeros   : Min   : 0.1680000        Max   : 1000.000       
Linear constraints   :
  Nonzeros           : Min   : 2.000000e-12     Max   : 5.253778e+07   
  RHS nonzeros       : Min   : 1.000000         Max   : 250000.0       
CPLEX> Version identifier: 20.1.0.0 | 2020-11-10 | 9bedb6d68
Tried aggregator 3 times.
MIP Presolve eliminated 2996 rows and 2758 columns.
MIP Presolve modified 2375 coefficients.
Aggregator did 11 substitutions.
Reduced MIP has 966 rows, 560 columns, and 3020 nonzeros.
Reduced MIP has 325 binaries, 0 generals, 0 SOSs, and 0 indicators.
Presolve time = 0.01 sec. (9.11 ticks)
Found incumbent of value 2014.382453 after 0.02 sec. (11.25 ticks)
Probing fixed 12 vars, tightened 1041 bounds.
Probing time = 0.02 sec. (15.57 ticks)
Tried aggregator 1 time.
Detecting symmetries...
MIP Presolve eliminated 26 rows and 24 columns.
MIP Presolve modified 596 coefficients.
Reduced MIP has 940 rows, 536 columns, and 2922 nonzeros.
Reduced MIP has 313 binaries, 0 generals, 0 SOSs, and 0 indicators.
Presolve time = 0.00 sec. (2.06 ticks)
Probing fixed 0 vars, tightened 607 bounds.
Probing time = 0.02 sec. (14.66 ticks)
Cover probing fixed 0 vars, tightened 306 bounds.
Clique table members: 2079.
MIP emphasis: balance optimality and feasibility.
MIP search method: dynamic search.
Parallel mode: deterministic, using up to 12 threads.
Root relaxation solution time = 0.01 sec. (13.05 ticks)

        Nodes                                         Cuts/
   Node  Left     Objective  IInf  Best Integer    Best Bound    ItCnt     Gap

*     0+    0                         2014.3825     2000.0000             0.71%
      0     0     2002.9030   200     2014.3825     2002.9030      454    0.57%
*     0+    0                         2005.2798     2002.9030             0.12%
*     0+    0                         2002.9030     2002.9030             0.00%
      0     0        cutoff           2002.9030     2002.9030      611    0.00%
Elapsed time = 0.12 sec. (103.17 ticks, tree = 0.01 MB, solutions = 3)

Implied bound cuts applied:  197
Flow cuts applied:  1
Mixed integer rounding cuts applied:  109
Gomory fractional cuts applied:  3

Root node processing (before b&c):
  Real time             =    0.12 sec. (103.33 ticks)
Parallel b&c, 12 threads:
  Real time             =    0.00 sec. (0.00 ticks)
  Sync time (average)   =    0.00 sec.
  Wait time (average)   =    0.00 sec.
                          ------------
Total (root+branch&cut) =    0.12 sec. (103.33 ticks)

Solution pool: 3 solutions saved.

MIP - Integer optimal solution:  Objective =  2.0029030016e+03
Solution time =    0.12 sec.  Iterations = 611  Nodes = 0
Deterministic time = 103.34 ticks  (879.08 ticks/sec)

CPLEX> Incumbent solution written to file '/tmp/tmp_8skqd3l.cplex.sol'.
CPLEX> 
